synthesis/NR_LRA/sl/lower_strict2.sl
(set-logic LRA)
(set-feature :recursion true)


(declare-var x1 Real)
(declare-var x2 Real)


(synth-fun fy ((x1 Real) (x2 Real)) Real)

(constraint (and (> x1 (fy x1 x2)) (> x2 (fy x1 x2))))

(check-synth)
